problem_generation/data/GISP/train/er_n=63_m=1179_p=0.60_SET2_setparam=100.00_alpha=0.50_820.lp
maximize
OBJ:100x0 + 100x1 + 100x2 + 100x3 + 100x4 + 100x5 + 100x6 + 100x7 + 100x8 + 100x9 + 100x10 + 100x11 + 100x12 + 100x13 + 100x14 + 100x15 + 100x16 + 100x17 + 100x18 + 100x19 + 100x20 + 100x21 + 100x22 + 100x23 + 100x24 + 100x25 + 100x26 + 100x27 + 100x28 + 100x29 + 100x30 + 100x31 + 100x32 + 100x33 + 100x34 + 100x35 + 100x36 + 100x37 + 100x38 + 100x39 + 100x40 + 100x41 + 100x42 + 100x43 + 100x44 + 100x45 + 100x46 + 100x47 + 100x48 + 100x49 + 100x50 + 100x51 + 100x52 + 100x53 + 100x54 + 100x55 + 100x56 + 100x57 + 100x58 + 100x59 + 100x60 + 100x61 + 100x62 - y36_53 - y18_26 - y17_58 - y8_9 - y0_5 - y40_41 - y48_54 - y0_14 - y40_50 - y11_23 - y41_42 - y33_38 - y14_15 - y22_28 - y2_59 - y3_24 - y43_60 - y3_33 - y36_57 - y5_60 - y28_62 - y9_58 - y21_59 - y10_22 - y2_36 - y25_38 - y10_49 - y22_23 - y51_59 - y3_19 - y32_55 - y22_32 - y14_28 - y13_60 - y55_56 - y36_52 - y47_61 - y5_55 - y21_27 - y6_38 - y29_40 - y48_53 - y40_58 - y39_62 - y33_37 - y51_54 - y32_50 - y13_46 - y35_46 - y3_23 - y32_59 - y1_53 - y24_55 - y17_25 - y7_11 - y17_43 - y5_50 - y6_15 - y17_52 - y6_24 - y6_33 - y6_51 - y21_49 - y39_48 - y2_8 - y20_62 - y25_28 - y12_58 - y23_58 - y43_45 - y13_41 - y35_41 - y3_18 - y43_54 - y1_48 - y24_50 - y1_57 - y5_36 - y5_45 - y17_47 - y28_47 - y28_56 - y6_19 - y9_52 - y27_60 - y42_58 - y39_43 - y2_3 - y2_12 - y31_48 - y10_25 - y39_61 - y2_21 - y54_59 - y23_62 - y3_4 - y1_34 - y32_49 - y1_43 - y35_45 - y43_58 - y16_41 - y5_22 - y57_60 - y36_37 - y5_40 - y9_38 - y6_14 - y50_57 - y21_30 - y31_34 - y10_11 - y2_7 - y39_56 - y23_39 - y2_16 - y20_52 - y31_52 - y32_35 - y24_31 - y43_44 - y16_27 - y13_40 - y35_40 - y43_53 - y35_58 - y9_33 - y5_44 - y0_60 - y20_38 - y12_34 - y2_11 - y4_30 - y31_56 - y4_48 - y12_61 - y1_24 - y53_62 - y32_39 - y34_58 - y13_35 - y13_44 - y16_40 - y46_50 - y38_46 - y9_19 - y26_53 - y27_36 - y19_41 - y30_41 - y27_54 - y0_37 - y11_37 - y42_61 - y0_55 - y31_33 - y31_42 - y4_25 - y23_38 - y4_43 - y23_56 - y45_53 - y13_30 - y37_58 - y1_46 - y5_16 - y9_14 - y38_59 - y7_53 - y27_31 - y30_36 - y50_51 - y0_32 - y11_32 - y27_58 - y8_54 - y19_54 - y42_56 - y11_50 - y12_15 - y4_11 - y12_24 - y12_33 - y23_42 - y1_5 - y13_16 - y45_48 - y1_23 - y34_57 - y1_32 - y37_53 - y3_60 - y15_34 - y15_43 - y46_58 - y57_58 - y18_57 - y27_35 - y0_18 - y19_31 - y0_27 - y11_27 - y19_49 - y0_45 - y20_23 - y4_15 - y33_51 - y23_28 - y4_24 - y23_37 - y1_9 - y37_39 - y45_52 - y14_46 - y37_48 - y34_61 - y45_61 - y14_55 - y15_20 - y18_25 - y15_38 - y38_40 - y18_34 - y7_43 - y0_13 - y8_26 - y8_44 - y30_44 - y11_49 - y41_50 - y44_46 - y12_23 - y4_19 - y10_53 - y4_28 - y25_60 - y1_13 - y3_32 - y37_43 - y34_56 - y3_59 - y15_33 - y15_42 - y26_42 - y7_38 - y7_47 - y7_56 - y11_17 - y8_30 - y0_26 - y29_62 - y41_45 - y41_54 - y44_50 - y33_59 - y44_59 - y2_53 - y3_27 - y37_38 - y22_49 - y14_45 - y37_47 - y3_54 - y15_28 - y47_60 - y59_62 - y26_37 - y18_33 - y48_61 - y6_55 - y21_53 - y33_36 - y33_45 - y44_45 - y41_58 - y10_52 - y44_54 - y10_61 - y22_26 - y3_22 - y14_22 - y22_35 - y14_31 - y22_44 - y22_53 - y14_49 - y7_10 - y15_23 - y36_55 - y15_32 - y17_51 - y17_60 - y7_37 - y18_37 - y6_41 - y6_50 - y40_52 - y6_59 - y10_20 - y33_40 - y33_49 - y10_56 - y2_52 - y14_17 - y22_30 - y14_26 - y13_58 - y14_35 - y3_44 - y7_23 - y47_59 - y29_38 - y21_43 - y40_56 - y21_52 - y21_61 - y10_24 - y2_20 - y33_35 - y25_40 - y51_52 - y2_47 - y3_12 - y51_61 - y3_21 - y14_21 - y32_57 - y24_53 - y14_30 - y24_62 - y35_62 - y16_58 - y28_32 - y28_41 - y36_54 - y9_37 - y47_54 - y5_48 - y9_46 - y17_59 - y6_31 - y21_29 - y21_38 - y6_49 - y40_51 - y2_6 - y39_55 - y10_28 - y31_60 - y54_62 - y10_37 - y2_42 - y32_43 - y13_39 - y3_16 - y24_48 - y35_48 - y14_25 - y16_44 - y1_55 - y13_57 - y5_34 - y36_49 - y36_58 - y28_54 - y5_61 - y50_60 - y21_42 - y31_46 - y39_59 - y20_55 - y13_25 - y2_37 - y13_34 - y51_60 - y13_43 - y32_56 - y43_56 - y1_50 - y13_52 - y1_59 - y13_61 - y35_61 - y9_18 - y28_40 - y3_56 - y5_47 - y6_12 - y17_49 - y42_60 - y39_45 - y20_41 - y39_54 - y12_46 - y23_46 - y2_23 - y4_42 - y20_59 - y54_61 - y4_51 - y13_29 - y32_42 - y1_36 - y35_38 - y13_47 - y16_43 - y5_15 - y46_53 - y57_62 - y36_39 - y49_58 - y17_35 - y9_31 - y28_44 - y5_51 - y27_48 - y42_46 - y21_23 - y19_53 - y42_55 - y11_58 - y31_36 - y2_9 - y20_45 - y31_45 - y23_41 - y12_59 - y23_59 - y53_60 - y13_33 - y32_46 - y1_40 - y1_49 - y5_10 - y5_19 - y17_21 - y49_53 - y5_28 - y38_62 - y5_37 - y6_11 - y27_43 - y6_20 - y19_39 - y50_54 - y30_48 - y27_61 - y11_44 - y30_57 - y0_53 - y11_53 - y20_31 - y11_62 - y20_49 - y31_58 - y53_55 - y1_26 - y4_59 - y16_24 - y45_60 - y56_60 - y1_44 - y16_42 - y46_52 - y38_57 - y5_32 - y30_34 - y30_43 - y27_56 - y0_39 - y11_39 - y30_52 - y12_13 - y19_61 - y20_26 - y60_62 - y0_57 - y12_22 - y4_18 - y23_40 - y1_3 - y12_49 - y1_12 - y4_45 - y4_54 - y34_55 - y22_62 - y1_39 - y5_9 - y15_50 - y38_61 - y27_33 - y8_29 - y19_29 - y0_25 - y27_51 - y20_21 - y11_52 - y52_53 - y12_26 - y41_62 - y31_39 - y52_62 - y4_31 - y1_7 - y37_46 - y56_59 - y3_53 - y14_53 - y14_62 - y15_27 - y18_41 - y7_50 - y8_15 - y27_28 - y0_11 - y19_24 - y0_20 - y8_33 - y19_33 - y27_46 - y0_29 - y11_38 - y19_51 - y30_51 - y0_47 - y11_47 - y41_48 - y4_8 - y44_53 - y23_30 - y1_11 - y22_43 - y34_45 - y3_39 - y14_39 - y37_50 - y3_57 - y37_59 - y7_18 - y26_31 - y37_49 - y38_42 - y18_36 - y18_54 - y48_55 - y27_32 - y11_15 - y8_28 - y0_24 - y8_37 - y30_37 - y0_33 - y10_46 - y33_48 - y41_61 - y25_44 - y44_48 - y33_57 - y25_53 - y22_29 - y25_62 - y3_34 - y22_47 - y45_49 - y56_58 - y37_54 - y3_61 - y55_62 - y26_35 - y26_44 - y0_1 - y40_46 - y0_19 - y6_62 - y41_47 - y10_41 - y33_43 - y44_52 - y10_59 - y22_24 - y33_61 - y2_55 - y3_20 - y14_20 - y37_40 - y3_47 - y14_56
 Subject to
C1: x0+x1-y0_1 <=1 
C2: x0+x3 <=1 
C3: x0+x5-y0_5 <=1 
C4: x0+x6 <=1 
C5: x0+x7 <=1 
C6: x0+x8 <=1 
C7: x0+x10 <=1 
C8: x0+x11-y0_11 <=1 
C9: x0+x13-y0_13 <=1 
C10: x0+x14-y0_14 <=1 
C11: x0+x15 <=1 
C12: x0+x17 <=1 
C13: x0+x18-y0_18 <=1 
C14: x0+x19-y0_19 <=1 
C15: x0+x20-y0_20 <=1 
C16: x0+x21 <=1 
C17: x0+x22 <=1 
C18: x0+x24-y0_24 <=1 
C19: x0+x25-y0_25 <=1 
C20: x0+x26-y0_26 <=1 
C21: x0+x27-y0_27 <=1 
C22: x0+x28 <=1 
C23: x0+x29-y0_29 <=1 
C24: x0+x30 <=1 
C25: x0+x32-y0_32 <=1 
C26: x0+x33-y0_33 <=1 
C27: x0+x35 <=1 
C28: x0+x37-y0_37 <=1 
C29: x0+x39-y0_39 <=1 
C30: x0+x40 <=1 
C31: x0+x45-y0_45 <=1 
C32: x0+x46 <=1 
C33: x0+x47-y0_47 <=1 
C34: x0+x48 <=1 
C35: x0+x51 <=1 
C36: x0+x52 <=1 
C37: x0+x53-y0_53 <=1 
C38: x0+x54 <=1 
C39: x0+x55-y0_55 <=1 
C40: x0+x57-y0_57 <=1 
C41: x0+x59 <=1 
C42: x0+x60-y0_60 <=1 
C43: x0+x62 <=1 
C44: x1+x3-y1_3 <=1 
C45: x1+x5-y1_5 <=1 
C46: x1+x7-y1_7 <=1 
C47: x1+x8 <=1 
C48: x1+x9-y1_9 <=1 
C49: x1+x11-y1_11 <=1 
C50: x1+x12-y1_12 <=1 
C51: x1+x13-y1_13 <=1 
C52: x1+x15 <=1 
C53: x1+x16 <=1 
C54: x1+x18 <=1 
C55: x1+x19 <=1 
C56: x1+x20 <=1 
C57: x1+x22 <=1 
C58: x1+x23-y1_23 <=1 
C59: x1+x24-y1_24 <=1 
C60: x1+x26-y1_26 <=1 
C61: x1+x27 <=1 
C62: x1+x32-y1_32 <=1 
C63: x1+x33 <=1 
C64: x1+x34-y1_34 <=1 
C65: x1+x36-y1_36 <=1 
C66: x1+x39-y1_39 <=1 
C67: x1+x40-y1_40 <=1 
C68: x1+x43-y1_43 <=1 
C69: x1+x44-y1_44 <=1 
C70: x1+x46-y1_46 <=1 
C71: x1+x48-y1_48 <=1 
C72: x1+x49-y1_49 <=1 
C73: x1+x50-y1_50 <=1 
C74: x1+x52 <=1 
C75: x1+x53-y1_53 <=1 
C76: x1+x54 <=1 
C77: x1+x55-y1_55 <=1 
C78: x1+x57-y1_57 <=1 
C79: x1+x58 <=1 
C80: x1+x59-y1_59 <=1 
C81: x1+x60 <=1 
C82: x2+x3-y2_3 <=1 
C83: x2+x4 <=1 
C84: x2+x5 <=1 
C85: x2+x6-y2_6 <=1 
C86: x2+x7-y2_7 <=1 
C87: x2+x8-y2_8 <=1 
C88: x2+x9-y2_9 <=1 
C89: x2+x10 <=1 
C90: x2+x11-y2_11 <=1 
C91: x2+x12-y2_12 <=1 
C92: x2+x13 <=1 
C93: x2+x16-y2_16 <=1 
C94: x2+x17 <=1 
C95: x2+x19 <=1 
C96: x2+x20-y2_20 <=1 
C97: x2+x21-y2_21 <=1 
C98: x2+x23-y2_23 <=1 
C99: x2+x24 <=1 
C100: x2+x25 <=1 
C101: x2+x27 <=1 
C102: x2+x28 <=1 
C103: x2+x32 <=1 
C104: x2+x34 <=1 
C105: x2+x35 <=1 
C106: x2+x36-y2_36 <=1 
C107: x2+x37-y2_37 <=1 
C108: x2+x38 <=1 
C109: x2+x41 <=1 
C110: x2+x42-y2_42 <=1 
C111: x2+x43 <=1 
C112: x2+x44 <=1 
C113: x2+x45 <=1 
C114: x2+x47-y2_47 <=1 
C115: x2+x48 <=1 
C116: x2+x52-y2_52 <=1 
C117: x2+x53-y2_53 <=1 
C118: x2+x54 <=1 
C119: x2+x55-y2_55 <=1 
C120: x2+x57 <=1 
C121: x2+x58 <=1 
C122: x2+x59-y2_59 <=1 
C123: x3+x4-y3_4 <=1 
C124: x3+x7 <=1 
C125: x3+x12-y3_12 <=1 
C126: x3+x13 <=1 
C127: x3+x14 <=1 
C128: x3+x15 <=1 
C129: x3+x16-y3_16 <=1 
C130: x3+x18-y3_18 <=1 
C131: x3+x19-y3_19 <=1 
C132: x3+x20-y3_20 <=1 
C133: x3+x21-y3_21 <=1 
C134: x3+x22-y3_22 <=1 
C135: x3+x23-y3_23 <=1 
C136: x3+x24-y3_24 <=1 
C137: x3+x27-y3_27 <=1 
C138: x3+x30 <=1 
C139: x3+x31 <=1 
C140: x3+x32-y3_32 <=1 
C141: x3+x33-y3_33 <=1 
C142: x3+x34-y3_34 <=1 
C143: x3+x37 <=1 
C144: x3+x39-y3_39 <=1 
C145: x3+x44-y3_44 <=1 
C146: x3+x45 <=1 
C147: x3+x46 <=1 
C148: x3+x47-y3_47 <=1 
C149: x3+x48 <=1 
C150: x3+x49 <=1 
C151: x3+x51 <=1 
C152: x3+x53-y3_53 <=1 
C153: x3+x54-y3_54 <=1 
C154: x3+x56-y3_56 <=1 
C155: x3+x57-y3_57 <=1 
C156: x3+x58 <=1 
C157: x3+x59-y3_59 <=1 
C158: x3+x60-y3_60 <=1 
C159: x3+x61-y3_61 <=1 
C160: x4+x5 <=1 
C161: x4+x8-y4_8 <=1 
C162: x4+x9 <=1 
C163: x4+x11-y4_11 <=1 
C164: x4+x13 <=1 
C165: x4+x14 <=1 
C166: x4+x15-y4_15 <=1 
C167: x4+x18-y4_18 <=1 
C168: x4+x19-y4_19 <=1 
C169: x4+x20 <=1 
C170: x4+x24-y4_24 <=1 
C171: x4+x25-y4_25 <=1 
C172: x4+x27 <=1 
C173: x4+x28-y4_28 <=1 
C174: x4+x29 <=1 
C175: x4+x30-y4_30 <=1 
C176: x4+x31-y4_31 <=1 
C177: x4+x32 <=1 
C178: x4+x33 <=1 
C179: x4+x36 <=1 
C180: x4+x37 <=1 
C181: x4+x38 <=1 
C182: x4+x40 <=1 
C183: x4+x41 <=1 
C184: x4+x42-y4_42 <=1 
C185: x4+x43-y4_43 <=1 
C186: x4+x45-y4_45 <=1 
C187: x4+x46 <=1 
C188: x4+x47 <=1 
C189: x4+x48-y4_48 <=1 
C190: x4+x49 <=1 
C191: x4+x51-y4_51 <=1 
C192: x4+x52 <=1 
C193: x4+x54-y4_54 <=1 
C194: x4+x57 <=1 
C195: x4+x59-y4_59 <=1 
C196: x4+x60 <=1 
C197: x4+x61 <=1 
C198: x5+x8 <=1 
C199: x5+x9-y5_9 <=1 
C200: x5+x10-y5_10 <=1 
C201: x5+x11 <=1 
C202: x5+x12 <=1 
C203: x5+x15-y5_15 <=1 
C204: x5+x16-y5_16 <=1 
C205: x5+x19-y5_19 <=1 
C206: x5+x21 <=1 
C207: x5+x22-y5_22 <=1 
C208: x5+x23 <=1 
C209: x5+x27 <=1 
C210: x5+x28-y5_28 <=1 
C211: x5+x31 <=1 
C212: x5+x32-y5_32 <=1 
C213: x5+x33 <=1 
C214: x5+x34-y5_34 <=1 
C215: x5+x36-y5_36 <=1 
C216: x5+x37-y5_37 <=1 
C217: x5+x39 <=1 
C218: x5+x40-y5_40 <=1 
C219: x5+x43 <=1 
C220: x5+x44-y5_44 <=1 
C221: x5+x45-y5_45 <=1 
C222: x5+x47-y5_47 <=1 
C223: x5+x48-y5_48 <=1 
C224: x5+x49 <=1 
C225: x5+x50-y5_50 <=1 
C226: x5+x51-y5_51 <=1 
C227: x5+x55-y5_55 <=1 
C228: x5+x56 <=1 
C229: x5+x57 <=1 
C230: x5+x58 <=1 
C231: x5+x60-y5_60 <=1 
C232: x5+x61-y5_61 <=1 
C233: x5+x62 <=1 
C234: x6+x7 <=1 
C235: x6+x8 <=1 
C236: x6+x10 <=1 
C237: x6+x11-y6_11 <=1 
C238: x6+x12-y6_12 <=1 
C239: x6+x14-y6_14 <=1 
C240: x6+x15-y6_15 <=1 
C241: x6+x16 <=1 
C242: x6+x17 <=1 
C243: x6+x19-y6_19 <=1 
C244: x6+x20-y6_20 <=1 
C245: x6+x23 <=1 
C246: x6+x24-y6_24 <=1 
C247: x6+x26 <=1 
C248: x6+x31-y6_31 <=1 
C249: x6+x33-y6_33 <=1 
C250: x6+x34 <=1 
C251: x6+x35 <=1 
C252: x6+x36 <=1 
C253: x6+x37 <=1 
C254: x6+x38-y6_38 <=1 
C255: x6+x39 <=1 
C256: x6+x40 <=1 
C257: x6+x41-y6_41 <=1 
C258: x6+x44 <=1 
C259: x6+x46 <=1 
C260: x6+x47 <=1 
C261: x6+x48 <=1 
C262: x6+x49-y6_49 <=1 
C263: x6+x50-y6_50 <=1 
C264: x6+x51-y6_51 <=1 
C265: x6+x52 <=1 
C266: x6+x55-y6_55 <=1 
C267: x6+x59-y6_59 <=1 
C268: x6+x60 <=1 
C269: x6+x62-y6_62 <=1 
C270: x7+x10-y7_10 <=1 
C271: x7+x11-y7_11 <=1 
C272: x7+x14 <=1 
C273: x7+x15 <=1 
C274: x7+x16 <=1 
C275: x7+x18-y7_18 <=1 
C276: x7+x23-y7_23 <=1 
C277: x7+x24 <=1 
C278: x7+x26 <=1 
C279: x7+x27 <=1 
C280: x7+x28 <=1 
C281: x7+x30 <=1 
C282: x7+x31 <=1 
C283: x7+x32 <=1 
C284: x7+x33 <=1 
C285: x7+x35 <=1 
C286: x7+x37-y7_37 <=1 
C287: x7+x38-y7_38 <=1 
C288: x7+x40 <=1 
C289: x7+x41 <=1 
C290: x7+x43-y7_43 <=1 
C291: x7+x44 <=1 
C292: x7+x47-y7_47 <=1 
C293: x7+x49 <=1 
C294: x7+x50-y7_50 <=1 
C295: x7+x52 <=1 
C296: x7+x53-y7_53 <=1 
C297: x7+x55 <=1 
C298: x7+x56-y7_56 <=1 
C299: x7+x57 <=1 
C300: x7+x58 <=1 
C301: x7+x60 <=1 
C302: x7+x61 <=1 
C303: x7+x62 <=1 
C304: x8+x9-y8_9 <=1 
C305: x8+x11 <=1 
C306: x8+x12 <=1 
C307: x8+x14 <=1 
C308: x8+x15-y8_15 <=1 
C309: x8+x19 <=1 
C310: x8+x22 <=1 
C311: x8+x26-y8_26 <=1 
C312: x8+x27 <=1 
C313: x8+x28-y8_28 <=1 
C314: x8+x29-y8_29 <=1 
C315: x8+x30-y8_30 <=1 
C316: x8+x33-y8_33 <=1 
C317: x8+x37-y8_37 <=1 
C318: x8+x38 <=1 
C319: x8+x43 <=1 
C320: x8+x44-y8_44 <=1 
C321: x8+x45 <=1 
C322: x8+x46 <=1 
C323: x8+x47 <=1 
C324: x8+x50 <=1 
C325: x8+x51 <=1 
C326: x8+x54-y8_54 <=1 
C327: x8+x62 <=1 
C328: x9+x10 <=1 
C329: x9+x12 <=1 
C330: x9+x13 <=1 
C331: x9+x14-y9_14 <=1 
C332: x9+x18-y9_18 <=1 
C333: x9+x19-y9_19 <=1 
C334: x9+x20 <=1 
C335: x9+x21 <=1 
C336: x9+x27 <=1 
C337: x9+x28 <=1 
C338: x9+x30 <=1 
C339: x9+x31-y9_31 <=1 
C340: x9+x32 <=1 
C341: x9+x33-y9_33 <=1 
C342: x9+x35 <=1 
C343: x9+x36 <=1 
C344: x9+x37-y9_37 <=1 
C345: x9+x38-y9_38 <=1 
C346: x9+x40 <=1 
C347: x9+x41 <=1 
C348: x9+x44 <=1 
C349: x9+x45 <=1 
C350: x9+x46-y9_46 <=1 
C351: x9+x47 <=1 
C352: x9+x48 <=1 
C353: x9+x50 <=1 
C354: x9+x52-y9_52 <=1 
C355: x9+x54 <=1 
C356: x9+x57 <=1 
C357: x9+x58-y9_58 <=1 
C358: x9+x62 <=1 
C359: x10+x11-y10_11 <=1 
C360: x10+x12 <=1 
C361: x10+x14 <=1 
C362: x10+x18 <=1 
C363: x10+x19 <=1 
C364: x10+x20-y10_20 <=1 
C365: x10+x22-y10_22 <=1 
C366: x10+x24-y10_24 <=1 
C367: x10+x25-y10_25 <=1 
C368: x10+x26 <=1 
C369: x10+x27 <=1 
C370: x10+x28-y10_28 <=1 
C371: x10+x31 <=1 
C372: x10+x32 <=1 
C373: x10+x33 <=1 
C374: x10+x37-y10_37 <=1 
C375: x10+x38 <=1 
C376: x10+x39 <=1 
C377: x10+x41-y10_41 <=1 
C378: x10+x46-y10_46 <=1 
C379: x10+x48 <=1 
C380: x10+x49-y10_49 <=1 
C381: x10+x50 <=1 
C382: x10+x52-y10_52 <=1 
C383: x10+x53-y10_53 <=1 
C384: x10+x56-y10_56 <=1 
C385: x10+x59-y10_59 <=1 
C386: x10+x61-y10_61 <=1 
C387: x10+x62 <=1 
C388: x11+x13 <=1 
C389: x11+x15-y11_15 <=1 
C390: x11+x17-y11_17 <=1 
C391: x11+x18 <=1 
C392: x11+x19 <=1 
C393: x11+x21 <=1 
C394: x11+x22 <=1 
C395: x11+x23-y11_23 <=1 
C396: x11+x27-y11_27 <=1 
C397: x11+x30 <=1 
C398: x11+x32-y11_32 <=1 
C399: x11+x37-y11_37 <=1 
C400: x11+x38-y11_38 <=1 
C401: x11+x39-y11_39 <=1 
C402: x11+x42 <=1 
C403: x11+x43 <=1 
C404: x11+x44-y11_44 <=1 
C405: x11+x46 <=1 
C406: x11+x47-y11_47 <=1 
C407: x11+x49-y11_49 <=1 
C408: x11+x50-y11_50 <=1 
C409: x11+x51 <=1 
C410: x11+x52-y11_52 <=1 
C411: x11+x53-y11_53 <=1 
C412: x11+x54 <=1 
C413: x11+x56 <=1 
C414: x11+x57 <=1 
C415: x11+x58-y11_58 <=1 
C416: x11+x62-y11_62 <=1 
C417: x12+x13-y12_13 <=1 
C418: x12+x15-y12_15 <=1 
C419: x12+x19 <=1 
C420: x12+x21 <=1 
C421: x12+x22-y12_22 <=1 
C422: x12+x23-y12_23 <=1 
C423: x12+x24-y12_24 <=1 
C424: x12+x25 <=1 
C425: x12+x26-y12_26 <=1 
C426: x12+x31 <=1 
C427: x12+x32 <=1 
C428: x12+x33-y12_33 <=1 
C429: x12+x34-y12_34 <=1 
C430: x12+x38 <=1 
C431: x12+x39 <=1 
C432: x12+x40 <=1 
C433: x12+x41 <=1 
C434: x12+x42 <=1 
C435: x12+x43 <=1 
C436: x12+x44 <=1 
C437: x12+x45 <=1 
C438: x12+x46-y12_46 <=1 
C439: x12+x48 <=1 
C440: x12+x49-y12_49 <=1 
C441: x12+x51 <=1 
C442: x12+x52 <=1 
C443: x12+x53 <=1 
C444: x12+x54 <=1 
C445: x12+x58-y12_58 <=1 
C446: x12+x59-y12_59 <=1 
C447: x12+x61-y12_61 <=1 
C448: x13+x16-y13_16 <=1 
C449: x13+x22 <=1 
C450: x13+x23 <=1 
C451: x13+x24 <=1 
C452: x13+x25-y13_25 <=1 
C453: x13+x26 <=1 
C454: x13+x29-y13_29 <=1 
C455: x13+x30-y13_30 <=1 
C456: x13+x32 <=1 
C457: x13+x33-y13_33 <=1 
C458: x13+x34-y13_34 <=1 
C459: x13+x35-y13_35 <=1 
C460: x13+x36 <=1 
C461: x13+x38 <=1 
C462: x13+x39-y13_39 <=1 
C463: x13+x40-y13_40 <=1 
C464: x13+x41-y13_41 <=1 
C465: x13+x43-y13_43 <=1 
C466: x13+x44-y13_44 <=1 
C467: x13+x46-y13_46 <=1 
C468: x13+x47-y13_47 <=1 
C469: x13+x50 <=1 
C470: x13+x52-y13_52 <=1 
C471: x13+x54 <=1 
C472: x13+x57-y13_57 <=1 
C473: x13+x58-y13_58 <=1 
C474: x13+x59 <=1 
C475: x13+x60-y13_60 <=1 
C476: x13+x61-y13_61 <=1 
C477: x14+x15-y14_15 <=1 
C478: x14+x17-y14_17 <=1 
C479: x14+x18 <=1 
C480: x14+x20-y14_20 <=1 
C481: x14+x21-y14_21 <=1 
C482: x14+x22-y14_22 <=1 
C483: x14+x23 <=1 
C484: x14+x24 <=1 
C485: x14+x25-y14_25 <=1 
C486: x14+x26-y14_26 <=1 
C487: x14+x27 <=1 
C488: x14+x28-y14_28 <=1 
C489: x14+x30-y14_30 <=1 
C490: x14+x31-y14_31 <=1 
C491: x14+x32 <=1 
C492: x14+x33 <=1 
C493: x14+x35-y14_35 <=1 
C494: x14+x36 <=1 
C495: x14+x37 <=1 
C496: x14+x39-y14_39 <=1 
C497: x14+x41 <=1 
C498: x14+x42 <=1 
C499: x14+x45-y14_45 <=1 
C500: x14+x46-y14_46 <=1 
C501: x14+x48 <=1 
C502: x14+x49-y14_49 <=1 
C503: x14+x50 <=1 
C504: x14+x52 <=1 
C505: x14+x53-y14_53 <=1 
C506: x14+x54 <=1 
C507: x14+x55-y14_55 <=1 
C508: x14+x56-y14_56 <=1 
C509: x14+x57 <=1 
C510: x14+x58 <=1 
C511: x14+x60 <=1 
C512: x14+x62-y14_62 <=1 
C513: x15+x17 <=1 
C514: x15+x20-y15_20 <=1 
C515: x15+x23-y15_23 <=1 
C516: x15+x24 <=1 
C517: x15+x25 <=1 
C518: x15+x27-y15_27 <=1 
C519: x15+x28-y15_28 <=1 
C520: x15+x29 <=1 
C521: x15+x30 <=1 
C522: x15+x32-y15_32 <=1 
C523: x15+x33-y15_33 <=1 
C524: x15+x34-y15_34 <=1 
C525: x15+x36 <=1 
C526: x15+x38-y15_38 <=1 
C527: x15+x40 <=1 
C528: x15+x42-y15_42 <=1 
C529: x15+x43-y15_43 <=1 
C530: x15+x44 <=1 
C531: x15+x50-y15_50 <=1 
C532: x15+x51 <=1 
C533: x15+x55 <=1 
C534: x15+x57 <=1 
C535: x15+x59 <=1 
C536: x15+x60 <=1 
C537: x15+x61 <=1 
C538: x16+x17 <=1 
C539: x16+x20 <=1 
C540: x16+x21 <=1 
C541: x16+x24-y16_24 <=1 
C542: x16+x25 <=1 
C543: x16+x26 <=1 
C544: x16+x27-y16_27 <=1 
C545: x16+x31 <=1 
C546: x16+x36 <=1 
C547: x16+x38 <=1 
C548: x16+x39 <=1 
C549: x16+x40-y16_40 <=1 
C550: x16+x41-y16_41 <=1 
C551: x16+x42-y16_42 <=1 
C552: x16+x43-y16_43 <=1 
C553: x16+x44-y16_44 <=1 
C554: x16+x46 <=1 
C555: x16+x48 <=1 
C556: x16+x52 <=1 
C557: x16+x53 <=1 
C558: x16+x55 <=1 
C559: x16+x57 <=1 
C560: x16+x58-y16_58 <=1 
C561: x16+x61 <=1 
C562: x16+x62 <=1 
C563: x17+x18 <=1 
C564: x17+x19 <=1 
C565: x17+x20 <=1 
C566: x17+x21-y17_21 <=1 
C567: x17+x22 <=1 
C568: x17+x24 <=1 
C569: x17+x25-y17_25 <=1 
C570: x17+x26 <=1 
C571: x17+x27 <=1 
C572: x17+x30 <=1 
C573: x17+x31 <=1 
C574: x17+x33 <=1 
C575: x17+x35-y17_35 <=1 
C576: x17+x36 <=1 
C577: x17+x37 <=1 
C578: x17+x38 <=1 
C579: x17+x41 <=1 
C580: x17+x43-y17_43 <=1 
C581: x17+x44 <=1 
C582: x17+x45 <=1 
C583: x17+x47-y17_47 <=1 
C584: x17+x48 <=1 
C585: x17+x49-y17_49 <=1 
C586: x17+x51-y17_51 <=1 
C587: x17+x52-y17_52 <=1 
C588: x17+x53 <=1 
C589: x17+x55 <=1 
C590: x17+x57 <=1 
C591: x17+x58-y17_58 <=1 
C592: x17+x59-y17_59 <=1 
C593: x17+x60-y17_60 <=1 
C594: x17+x61 <=1 
C595: x17+x62 <=1 
C596: x18+x19 <=1 
C597: x18+x21 <=1 
C598: x18+x25-y18_25 <=1 
C599: x18+x26-y18_26 <=1 
C600: x18+x30 <=1 
C601: x18+x32 <=1 
C602: x18+x33-y18_33 <=1 
C603: x18+x34-y18_34 <=1 
C604: x18+x35 <=1 
C605: x18+x36-y18_36 <=1 
C606: x18+x37-y18_37 <=1 
C607: x18+x39 <=1 
C608: x18+x41-y18_41 <=1 
C609: x18+x43 <=1 
C610: x18+x44 <=1 
C611: x18+x45 <=1 
C612: x18+x49 <=1 
C613: x18+x51 <=1 
C614: x18+x52 <=1 
C615: x18+x53 <=1 
C616: x18+x54-y18_54 <=1 
C617: x18+x55 <=1 
C618: x18+x56 <=1 
C619: x18+x57-y18_57 <=1 
C620: x18+x61 <=1 
C621: x19+x20 <=1 
C622: x19+x21 <=1 
C623: x19+x23 <=1 
C624: x19+x24-y19_24 <=1 
C625: x19+x27 <=1 
C626: x19+x29-y19_29 <=1 
C627: x19+x31-y19_31 <=1 
C628: x19+x33-y19_33 <=1 
C629: x19+x34 <=1 
C630: x19+x35 <=1 
C631: x19+x38 <=1 
C632: x19+x39-y19_39 <=1 
C633: x19+x40 <=1 
C634: x19+x41-y19_41 <=1 
C635: x19+x43 <=1 
C636: x19+x45 <=1 
C637: x19+x46 <=1 
C638: x19+x48 <=1 
C639: x19+x49-y19_49 <=1 
C640: x19+x50 <=1 
C641: x19+x51-y19_51 <=1 
C642: x19+x53-y19_53 <=1 
C643: x19+x54-y19_54 <=1 
C644: x19+x58 <=1 
C645: x19+x61-y19_61 <=1 
C646: x20+x21-y20_21 <=1 
C647: x20+x23-y20_23 <=1 
C648: x20+x26-y20_26 <=1 
C649: x20+x27 <=1 
C650: x20+x28 <=1 
C651: x20+x31-y20_31 <=1 
C652: x20+x34 <=1 
C653: x20+x36 <=1 
C654: x20+x38-y20_38 <=1 
C655: x20+x41-y20_41 <=1 
C656: x20+x42 <=1 
C657: x20+x43 <=1 
C658: x20+x44 <=1 
C659: x20+x45-y20_45 <=1 
C660: x20+x48 <=1 
C661: x20+x49-y20_49 <=1 
C662: x20+x52-y20_52 <=1 
C663: x20+x53 <=1 
C664: x20+x54 <=1 
C665: x20+x55-y20_55 <=1 
C666: x20+x56 <=1 
C667: x20+x57 <=1 
C668: x20+x58 <=1 
C669: x20+x59-y20_59 <=1 
C670: x20+x62-y20_62 <=1 
C671: x21+x22 <=1 
C672: x21+x23-y21_23 <=1 
C673: x21+x25 <=1 
C674: x21+x27-y21_27 <=1 
C675: x21+x29-y21_29 <=1 
C676: x21+x30-y21_30 <=1 
C677: x21+x31 <=1 
C678: x21+x36 <=1 
C679: x21+x37 <=1 
C680: x21+x38-y21_38 <=1 
C681: x21+x40 <=1 
C682: x21+x42-y21_42 <=1 
C683: x21+x43-y21_43 <=1 
C684: x21+x46 <=1 
C685: x21+x47 <=1 
C686: x21+x49-y21_49 <=1 
C687: x21+x51 <=1 
C688: x21+x52-y21_52 <=1 
C689: x21+x53-y21_53 <=1 
C690: x21+x54 <=1 
C691: x21+x57 <=1 
C692: x21+x59-y21_59 <=1 
C693: x21+x60 <=1 
C694: x21+x61-y21_61 <=1 
C695: x22+x23-y22_23 <=1 
C696: x22+x24-y22_24 <=1 
C697: x22+x26-y22_26 <=1 
C698: x22+x27 <=1 
C699: x22+x28-y22_28 <=1 
C700: x22+x29-y22_29 <=1 
C701: x22+x30-y22_30 <=1 
C702: x22+x32-y22_32 <=1 
C703: x22+x35-y22_35 <=1 
C704: x22+x36 <=1 
C705: x22+x37 <=1 
C706: x22+x43-y22_43 <=1 
C707: x22+x44-y22_44 <=1 
C708: x22+x46 <=1 
C709: x22+x47-y22_47 <=1 
C710: x22+x48 <=1 
C711: x22+x49-y22_49 <=1 
C712: x22+x52 <=1 
C713: x22+x53-y22_53 <=1 
C714: x22+x55 <=1 
C715: x22+x56 <=1 
C716: x22+x58 <=1 
C717: x22+x61 <=1 
C718: x22+x62-y22_62 <=1 
C719: x23+x24 <=1 
C720: x23+x26 <=1 
C721: x23+x28-y23_28 <=1 
C722: x23+x29 <=1 
C723: x23+x30-y23_30 <=1 
C724: x23+x31 <=1 
C725: x23+x32 <=1 
C726: x23+x35 <=1 
C727: x23+x36 <=1 
C728: x23+x37-y23_37 <=1 
C729: x23+x38-y23_38 <=1 
C730: x23+x39-y23_39 <=1 
C731: x23+x40-y23_40 <=1 
C732: x23+x41-y23_41 <=1 
C733: x23+x42-y23_42 <=1 
C734: x23+x44 <=1 
C735: x23+x46-y23_46 <=1 
C736: x23+x48 <=1 
C737: x23+x49 <=1 
C738: x23+x50 <=1 
C739: x23+x51 <=1 
C740: x23+x52 <=1 
C741: x23+x56-y23_56 <=1 
C742: x23+x58-y23_58 <=1 
C743: x23+x59-y23_59 <=1 
C744: x23+x60 <=1 
C745: x23+x62-y23_62 <=1 
C746: x24+x25 <=1 
C747: x24+x26 <=1 
C748: x24+x28 <=1 
C749: x24+x30 <=1 
C750: x24+x31-y24_31 <=1 
C751: x24+x34 <=1 
C752: x24+x37 <=1 
C753: x24+x38 <=1 
C754: x24+x39 <=1 
C755: x24+x40 <=1 
C756: x24+x45 <=1 
C757: x24+x48-y24_48 <=1 
C758: x24+x49 <=1 
C759: x24+x50-y24_50 <=1 
C760: x24+x51 <=1 
C761: x24+x53-y24_53 <=1 
C762: x24+x54 <=1 
C763: x24+x55-y24_55 <=1 
C764: x24+x58 <=1 
C765: x24+x60 <=1 
C766: x24+x62-y24_62 <=1 
C767: x25+x27 <=1 
C768: x25+x28-y25_28 <=1 
C769: x25+x31 <=1 
C770: x25+x32 <=1 
C771: x25+x34 <=1 
C772: x25+x37 <=1 
C773: x25+x38-y25_38 <=1 
C774: x25+x40-y25_40 <=1 
C775: x25+x41 <=1 
C776: x25+x44-y25_44 <=1 
C777: x25+x45 <=1 
C778: x25+x46 <=1 
C779: x25+x48 <=1 
C780: x25+x52 <=1 
C781: x25+x53-y25_53 <=1 
C782: x25+x55 <=1 
C783: x25+x57 <=1 
C784: x25+x59 <=1 
C785: x25+x60-y25_60 <=1 
C786: x25+x61 <=1 
C787: x25+x62-y25_62 <=1 
C788: x26+x27 <=1 
C789: x26+x28 <=1 
C790: x26+x29 <=1 
C791: x26+x30 <=1 
C792: x26+x31-y26_31 <=1 
C793: x26+x32 <=1 
C794: x26+x33 <=1 
C795: x26+x34 <=1 
C796: x26+x35-y26_35 <=1 
C797: x26+x37-y26_37 <=1 
C798: x26+x42-y26_42 <=1 
C799: x26+x43 <=1 
C800: x26+x44-y26_44 <=1 
C801: x26+x46 <=1 
C802: x26+x52 <=1 
C803: x26+x53-y26_53 <=1 
C804: x26+x55 <=1 
C805: x26+x56 <=1 
C806: x26+x57 <=1 
C807: x26+x58 <=1 
C808: x26+x59 <=1 
C809: x26+x60 <=1 
C810: x26+x61 <=1 
C811: x27+x28-y27_28 <=1 
C812: x27+x29 <=1 
C813: x27+x30 <=1 
C814: x27+x31-y27_31 <=1 
C815: x27+x32-y27_32 <=1 
C816: x27+x33-y27_33 <=1 
C817: x27+x35-y27_35 <=1 
C818: x27+x36-y27_36 <=1 
C819: x27+x42 <=1 
C820: x27+x43-y27_43 <=1 
C821: x27+x44 <=1 
C822: x27+x46-y27_46 <=1 
C823: x27+x48-y27_48 <=1 
C824: x27+x51-y27_51 <=1 
C825: x27+x52 <=1 
C826: x27+x54-y27_54 <=1 
C827: x27+x55 <=1 
C828: x27+x56-y27_56 <=1 
C829: x27+x57 <=1 
C830: x27+x58-y27_58 <=1 
C831: x27+x60-y27_60 <=1 
C832: x27+x61-y27_61 <=1 
C833: x28+x29 <=1 
C834: x28+x30 <=1 
C835: x28+x31 <=1 
C836: x28+x32-y28_32 <=1 
C837: x28+x34 <=1 
C838: x28+x36 <=1 
C839: x28+x37 <=1 
C840: x28+x40-y28_40 <=1 
C841: x28+x41-y28_41 <=1 
C842: x28+x44-y28_44 <=1 
C843: x28+x45 <=1 
C844: x28+x47-y28_47 <=1 
C845: x28+x53 <=1 
C846: x28+x54-y28_54 <=1 
C847: x28+x55 <=1 
C848: x28+x56-y28_56 <=1 
C849: x28+x62-y28_62 <=1 
C850: x29+x31 <=1 
C851: x29+x33 <=1 
C852: x29+x34 <=1 
C853: x29+x38-y29_38 <=1 
C854: x29+x40-y29_40 <=1 
C855: x29+x46 <=1 
C856: x29+x48 <=1 
C857: x29+x51 <=1 
C858: x29+x53 <=1 
C859: x29+x55 <=1 
C860: x29+x62-y29_62 <=1 
C861: x30+x34-y30_34 <=1 
C862: x30+x35 <=1 
C863: x30+x36-y30_36 <=1 
C864: x30+x37-y30_37 <=1 
C865: x30+x38 <=1 
C866: x30+x41-y30_41 <=1 
C867: x30+x42 <=1 
C868: x30+x43-y30_43 <=1 
C869: x30+x44-y30_44 <=1 
C870: x30+x45 <=1 
C871: x30+x48-y30_48 <=1 
C872: x30+x51-y30_51 <=1 
C873: x30+x52-y30_52 <=1 
C874: x30+x56 <=1 
C875: x30+x57-y30_57 <=1 
C876: x31+x33-y31_33 <=1 
C877: x31+x34-y31_34 <=1 
C878: x31+x36-y31_36 <=1 
C879: x31+x37 <=1 
C880: x31+x39-y31_39 <=1 
C881: x31+x41 <=1 
C882: x31+x42-y31_42 <=1 
C883: x31+x43 <=1 
C884: x31+x45-y31_45 <=1 
C885: x31+x46-y31_46 <=1 
C886: x31+x47 <=1 
C887: x31+x48-y31_48 <=1 
C888: x31+x49 <=1 
C889: x31+x52-y31_52 <=1 
C890: x31+x54 <=1 
C891: x31+x56-y31_56 <=1 
C892: x31+x57 <=1 
C893: x31+x58-y31_58 <=1 
C894: x31+x60-y31_60 <=1 
C895: x32+x33 <=1 
C896: x32+x35-y32_35 <=1 
C897: x32+x36 <=1 
C898: x32+x37 <=1 
C899: x32+x39-y32_39 <=1 
C900: x32+x41 <=1 
C901: x32+x42-y32_42 <=1 
C902: x32+x43-y32_43 <=1 
C903: x32+x44 <=1 
C904: x32+x45 <=1 
C905: x32+x46-y32_46 <=1 
C906: x32+x48 <=1 
C907: x32+x49-y32_49 <=1 
C908: x32+x50-y32_50 <=1 
C909: x32+x51 <=1 
C910: x32+x55-y32_55 <=1 
C911: x32+x56-y32_56 <=1 
C912: x32+x57-y32_57 <=1 
C913: x32+x58 <=1 
C914: x32+x59-y32_59 <=1 
C915: x32+x62 <=1 
C916: x33+x35-y33_35 <=1 
C917: x33+x36-y33_36 <=1 
C918: x33+x37-y33_37 <=1 
C919: x33+x38-y33_38 <=1 
C920: x33+x39 <=1 
C921: x33+x40-y33_40 <=1 
C922: x33+x41 <=1 
C923: x33+x43-y33_43 <=1 
C924: x33+x44 <=1 
C925: x33+x45-y33_45 <=1 
C926: x33+x47 <=1 
C927: x33+x48-y33_48 <=1 
C928: x33+x49-y33_49 <=1 
C929: x33+x51-y33_51 <=1 
C930: x33+x53 <=1 
C931: x33+x57-y33_57 <=1 
C932: x33+x58 <=1 
C933: x33+x59-y33_59 <=1 
C934: x33+x60 <=1 
C935: x33+x61-y33_61 <=1 
C936: x34+x39 <=1 
C937: x34+x42 <=1 
C938: x34+x44 <=1 
C939: x34+x45-y34_45 <=1 
C940: x34+x48 <=1 
C941: x34+x50 <=1 
C942: x34+x52 <=1 
C943: x34+x53 <=1 
C944: x34+x55-y34_55 <=1 
C945: x34+x56-y34_56 <=1 
C946: x34+x57-y34_57 <=1 
C947: x34+x58-y34_58 <=1 
C948: x34+x59 <=1 
C949: x34+x61-y34_61 <=1 
C950: x35+x37 <=1 
C951: x35+x38-y35_38 <=1 
C952: x35+x39 <=1 
C953: x35+x40-y35_40 <=1 
C954: x35+x41-y35_41 <=1 
C955: x35+x42 <=1 
C956: x35+x45-y35_45 <=1 
C957: x35+x46-y35_46 <=1 
C958: x35+x48-y35_48 <=1 
C959: x35+x49 <=1 
C960: x35+x51 <=1 
C961: x35+x53 <=1 
C962: x35+x54 <=1 
C963: x35+x56 <=1 
C964: x35+x57 <=1 
C965: x35+x58-y35_58 <=1 
C966: x35+x59 <=1 
C967: x35+x61-y35_61 <=1 
C968: x35+x62-y35_62 <=1 
C969: x36+x37-y36_37 <=1 
C970: x36+x39-y36_39 <=1 
C971: x36+x41 <=1 
C972: x36+x46 <=1 
C973: x36+x47 <=1 
C974: x36+x49-y36_49 <=1 
C975: x36+x52-y36_52 <=1 
C976: x36+x53-y36_53 <=1 
C977: x36+x54-y36_54 <=1 
C978: x36+x55-y36_55 <=1 
C979: x36+x56 <=1 
C980: x36+x57-y36_57 <=1 
C981: x36+x58-y36_58 <=1 
C982: x36+x59 <=1 
C983: x36+x60 <=1 
C984: x36+x62 <=1 
C985: x37+x38-y37_38 <=1 
C986: x37+x39-y37_39 <=1 
C987: x37+x40-y37_40 <=1 
C988: x37+x43-y37_43 <=1 
C989: x37+x45 <=1 
C990: x37+x46-y37_46 <=1 
C991: x37+x47-y37_47 <=1 
C992: x37+x48-y37_48 <=1 
C993: x37+x49-y37_49 <=1 
C994: x37+x50-y37_50 <=1 
C995: x37+x53-y37_53 <=1 
C996: x37+x54-y37_54 <=1 
C997: x37+x57 <=1 
C998: x37+x58-y37_58 <=1 
C999: x37+x59-y37_59 <=1 
C1000: x37+x61 <=1 
C1001: x38+x40-y38_40 <=1 
C1002: x38+x42-y38_42 <=1 
C1003: x38+x43 <=1 
C1004: x38+x45 <=1 
C1005: x38+x46-y38_46 <=1 
C1006: x38+x47 <=1 
C1007: x38+x53 <=1 
C1008: x38+x54 <=1 
C1009: x38+x55 <=1 
C1010: x38+x56 <=1 
C1011: x38+x57-y38_57 <=1 
C1012: x38+x58 <=1 
C1013: x38+x59-y38_59 <=1 
C1014: x38+x61-y38_61 <=1 
C1015: x38+x62-y38_62 <=1 
C1016: x39+x43-y39_43 <=1 
C1017: x39+x45-y39_45 <=1 
C1018: x39+x46 <=1 
C1019: x39+x48-y39_48 <=1 
C1020: x39+x54-y39_54 <=1 
C1021: x39+x55-y39_55 <=1 
C1022: x39+x56-y39_56 <=1 
C1023: x39+x58 <=1 
C1024: x39+x59-y39_59 <=1 
C1025: x39+x61-y39_61 <=1 
C1026: x39+x62-y39_62 <=1 
C1027: x40+x41-y40_41 <=1 
C1028: x40+x42 <=1 
C1029: x40+x44 <=1 
C1030: x40+x46-y40_46 <=1 
C1031: x40+x50-y40_50 <=1 
C1032: x40+x51-y40_51 <=1 
C1033: x40+x52-y40_52 <=1 
C1034: x40+x53 <=1 
C1035: x40+x55 <=1 
C1036: x40+x56-y40_56 <=1 
C1037: x40+x58-y40_58 <=1 
C1038: x40+x61 <=1 
C1039: x40+x62 <=1 
C1040: x41+x42-y41_42 <=1 
C1041: x41+x44 <=1 
C1042: x41+x45-y41_45 <=1 
C1043: x41+x46 <=1 
C1044: x41+x47-y41_47 <=1 
C1045: x41+x48-y41_48 <=1 
C1046: x41+x50-y41_50 <=1 
C1047: x41+x52 <=1 
C1048: x41+x53 <=1 
C1049: x41+x54-y41_54 <=1 
C1050: x41+x56 <=1 
C1051: x41+x57 <=1 
C1052: x41+x58-y41_58 <=1 
C1053: x41+x59 <=1 
C1054: x41+x60 <=1 
C1055: x41+x61-y41_61 <=1 
C1056: x41+x62-y41_62 <=1 
C1057: x42+x44 <=1 
C1058: x42+x46-y42_46 <=1 
C1059: x42+x47 <=1 
C1060: x42+x50 <=1 
C1061: x42+x53 <=1 
C1062: x42+x55-y42_55 <=1 
C1063: x42+x56-y42_56 <=1 
C1064: x42+x57 <=1 
C1065: x42+x58-y42_58 <=1 
C1066: x42+x60-y42_60 <=1 
C1067: x42+x61-y42_61 <=1 
C1068: x43+x44-y43_44 <=1 
C1069: x43+x45-y43_45 <=1 
C1070: x43+x46 <=1 
C1071: x43+x47 <=1 
C1072: x43+x51 <=1 
C1073: x43+x52 <=1 
C1074: x43+x53-y43_53 <=1 
C1075: x43+x54-y43_54 <=1 
C1076: x43+x56-y43_56 <=1 
C1077: x43+x57 <=1 
C1078: x43+x58-y43_58 <=1 
C1079: x43+x59 <=1 
C1080: x43+x60-y43_60 <=1 
C1081: x44+x45-y44_45 <=1 
C1082: x44+x46-y44_46 <=1 
C1083: x44+x47 <=1 
C1084: x44+x48-y44_48 <=1 
C1085: x44+x49 <=1 
C1086: x44+x50-y44_50 <=1 
C1087: x44+x52-y44_52 <=1 
C1088: x44+x53-y44_53 <=1 
C1089: x44+x54-y44_54 <=1 
C1090: x44+x57 <=1 
C1091: x44+x59-y44_59 <=1 
C1092: x45+x47 <=1 
C1093: x45+x48-y45_48 <=1 
C1094: x45+x49-y45_49 <=1 
C1095: x45+x50 <=1 
C1096: x45+x52-y45_52 <=1 
C1097: x45+x53-y45_53 <=1 
C1098: x45+x54 <=1 
C1099: x45+x55 <=1 
C1100: x45+x58 <=1 
C1101: x45+x60-y45_60 <=1 
C1102: x45+x61-y45_61 <=1 
C1103: x46+x50-y46_50 <=1 
C1104: x46+x51 <=1 
C1105: x46+x52-y46_52 <=1 
C1106: x46+x53-y46_53 <=1 
C1107: x46+x57 <=1 
C1108: x46+x58-y46_58 <=1 
C1109: x46+x59 <=1 
C1110: x46+x62 <=1 
C1111: x47+x51 <=1 
C1112: x47+x54-y47_54 <=1 
C1113: x47+x57 <=1 
C1114: x47+x59-y47_59 <=1 
C1115: x47+x60-y47_60 <=1 
C1116: x47+x61-y47_61 <=1 
C1117: x48+x51 <=1 
C1118: x48+x53-y48_53 <=1 
C1119: x48+x54-y48_54 <=1 
C1120: x48+x55-y48_55 <=1 
C1121: x48+x57 <=1 
C1122: x48+x58 <=1 
C1123: x48+x61-y48_61 <=1 
C1124: x49+x51 <=1 
C1125: x49+x53-y49_53 <=1 
C1126: x49+x55 <=1 
C1127: x49+x56 <=1 
C1128: x49+x57 <=1 
C1129: x49+x58-y49_58 <=1 
C1130: x49+x59 <=1 
C1131: x49+x60 <=1 
C1132: x49+x61 <=1 
C1133: x50+x51-y50_51 <=1 
C1134: x50+x53 <=1 
C1135: x50+x54-y50_54 <=1 
C1136: x50+x55 <=1 
C1137: x50+x57-y50_57 <=1 
C1138: x50+x58 <=1 
C1139: x50+x59 <=1 
C1140: x50+x60-y50_60 <=1 
C1141: x51+x52-y51_52 <=1 
C1142: x51+x53 <=1 
C1143: x51+x54-y51_54 <=1 
C1144: x51+x57 <=1 
C1145: x51+x59-y51_59 <=1 
C1146: x51+x60-y51_60 <=1 
C1147: x51+x61-y51_61 <=1 
C1148: x52+x53-y52_53 <=1 
C1149: x52+x61 <=1 
C1150: x52+x62-y52_62 <=1 
C1151: x53+x55-y53_55 <=1 
C1152: x53+x56 <=1 
C1153: x53+x60-y53_60 <=1 
C1154: x53+x61 <=1 
C1155: x53+x62-y53_62 <=1 
C1156: x54+x56 <=1 
C1157: x54+x58 <=1 
C1158: x54+x59-y54_59 <=1 
C1159: x54+x61-y54_61 <=1 
C1160: x54+x62-y54_62 <=1 
C1161: x55+x56-y55_56 <=1 
C1162: x55+x59 <=1 
C1163: x55+x60 <=1 
C1164: x55+x62-y55_62 <=1 
C1165: x56+x57 <=1 
C1166: x56+x58-y56_58 <=1 
C1167: x56+x59-y56_59 <=1 
C1168: x56+x60-y56_60 <=1 
C1169: x57+x58-y57_58 <=1 
C1170: x57+x60-y57_60 <=1 
C1171: x57+x62-y57_62 <=1 
C1172: x58+x59 <=1 
C1173: x58+x60 <=1 
C1174: x58+x61 <=1 
C1175: x59+x60 <=1 
C1176: x59+x62-y59_62 <=1 
C1177: x60+x61 <=1 
C1178: x60+x62-y60_62 <=1 
C1179: x61+x62 <=1 

binary
x0
x1
x2
x3
x4
x5
x6
x7
x8
x9
x10
x11
x12
x13
x14
x15
x16
x17
x18
x19
x20
x21
x22
x23
x24
x25
x26
x27
x28
x29
x30
x31
x32
x33
x34
x35
x36
x37
x38
x39
x40
x41
x42
x43
x44
x45
x46
x47
x48
x49
x50
x51
x52
x53
x54
x55
x56
x57
x58
x59
x60
x61
x62
