problem_generation/data/GISP/train/er_n=63_m=1179_p=0.60_SET2_setparam=100.00_alpha=0.50_820.sol
objective value:                                 1084
x2                                                  1 	(obj:100)
x20                                                 1 	(obj:100)
x29                                                 1 	(obj:100)
x30                                                 1 	(obj:100)
x37                                                 1 	(obj:100)
x39                                                 1 	(obj:100)
x40                                                 1 	(obj:100)
x47                                                 1 	(obj:100)
x49                                                 1 	(obj:100)
x50                                                 1 	(obj:100)
x52                                                 1 	(obj:100)
y40_50                                              1 	(obj:-1)
y29_40                                              1 	(obj:-1)
y20_52                                              1 	(obj:-1)
y37_39                                              1 	(obj:-1)
y37_47                                              1 	(obj:-1)
y40_52                                              1 	(obj:-1)
y2_52                                               1 	(obj:-1)
y2_20                                               1 	(obj:-1)
y2_47                                               1 	(obj:-1)
y2_37                                               1 	(obj:-1)
y20_49                                              1 	(obj:-1)
y30_52                                              1 	(obj:-1)
y37_50                                              1 	(obj:-1)
y37_49                                              1 	(obj:-1)
y30_37                                              1 	(obj:-1)
y37_40                                              1 	(obj:-1)
